p cnf 120 484
-1 -2 0
-1 -3 0
-1 -4 0
-1 -5 0
-1 -6 0
-1 -7 0
-1 -8 0
-2 -3 0
-2 -4 0
-2 -5 0
-2 -6 0
-2 -7 0
-2 -8 0
-3 -4 0
-3 -5 0
-3 -6 0
-3 -7 0
-3 -8 0
-4 -5 0
-4 -6 0
-4 -7 0
-4 -8 0
-5 -6 0
-5 -7 0
-5 -8 0
-6 -7 0
-6 -8 0
-7 -8 0
-9 -10 0
-9 -11 0
-9 -12 0
-9 -13 0
-9 -14 0
-9 -15 0
-9 -16 0
-10 -11 0
-10 -12 0
-10 -13 0
-10 -14 0
-10 -15 0
-10 -16 0
-11 -12 0
-11 -13 0
-11 -14 0
-11 -15 0
-11 -16 0
-12 -13 0
-12 -14 0
-12 -15 0
-12 -16 0
-13 -14 0
-13 -15 0
-13 -16 0
-14 -15 0
-14 -16 0
-15 -16 0
-17 -18 0
-17 -19 0
-17 -20 0
-17 -21 0
-17 -22 0
-17 -23 0
-17 -24 0
-18 -19 0
-18 -20 0
-18 -21 0
-18 -22 0
-18 -23 0
-18 -24 0
-19 -20 0
-19 -21 0
-19 -22 0
-19 -23 0
-19 -24 0
-20 -21 0
-20 -22 0
-20 -23 0
-20 -24 0
-21 -22 0
-21 -23 0
-21 -24 0
-22 -23 0
-22 -24 0
-23 -24 0
-25 -26 0
-25 -27 0
-25 -28 0
-25 -29 0
-25 -30 0
-25 -31 0
-25 -32 0
-26 -27 0
-26 -28 0
-26 -29 0
-26 -30 0
-26 -31 0
-26 -32 0
-27 -28 0
-27 -29 0
-27 -30 0
-27 -31 0
-27 -32 0
-28 -29 0
-28 -30 0
-28 -31 0
-28 -32 0
-29 -30 0
-29 -31 0
-29 -32 0
-30 -31 0
-30 -32 0
-31 -32 0
-33 -34 0
-33 -35 0
-33 -36 0
-33 -37 0
-33 -38 0
-33 -39 0
-33 -40 0
-34 -35 0
-34 -36 0
-34 -37 0
-34 -38 0
-34 -39 0
-34 -40 0
-35 -36 0
-35 -37 0
-35 -38 0
-35 -39 0
-35 -40 0
-36 -37 0
-36 -38 0
-36 -39 0
-36 -40 0
-37 -38 0
-37 -39 0
-37 -40 0
-38 -39 0
-38 -40 0
-39 -40 0
-41 -42 0
-41 -43 0
-41 -44 0
-41 -45 0
-41 -46 0
-41 -47 0
-41 -48 0
-42 -43 0
-42 -44 0
-42 -45 0
-42 -46 0
-42 -47 0
-42 -48 0
-43 -44 0
-43 -45 0
-43 -46 0
-43 -47 0
-43 -48 0
-44 -45 0
-44 -46 0
-44 -47 0
-44 -48 0
-45 -46 0
-45 -47 0
-45 -48 0
-46 -47 0
-46 -48 0
-47 -48 0
-49 -50 0
-49 -51 0
-49 -52 0
-49 -53 0
-49 -54 0
-49 -55 0
-49 -56 0
-50 -51 0
-50 -52 0
-50 -53 0
-50 -54 0
-50 -55 0
-50 -56 0
-51 -52 0
-51 -53 0
-51 -54 0
-51 -55 0
-51 -56 0
-52 -53 0
-52 -54 0
-52 -55 0
-52 -56 0
-53 -54 0
-53 -55 0
-53 -56 0
-54 -55 0
-54 -56 0
-55 -56 0
-57 -58 0
-57 -59 0
-57 -60 0
-57 -61 0
-57 -62 0
-57 -63 0
-57 -64 0
-58 -59 0
-58 -60 0
-58 -61 0
-58 -62 0
-58 -63 0
-58 -64 0
-59 -60 0
-59 -61 0
-59 -62 0
-59 -63 0
-59 -64 0
-60 -61 0
-60 -62 0
-60 -63 0
-60 -64 0
-61 -62 0
-61 -63 0
-61 -64 0
-62 -63 0
-62 -64 0
-63 -64 0
-65 -66 0
-65 -67 0
-65 -68 0
-65 -69 0
-65 -70 0
-65 -71 0
-65 -72 0
-66 -67 0
-66 -68 0
-66 -69 0
-66 -70 0
-66 -71 0
-66 -72 0
-67 -68 0
-67 -69 0
-67 -70 0
-67 -71 0
-67 -72 0
-68 -69 0
-68 -70 0
-68 -71 0
-68 -72 0
-69 -70 0
-69 -71 0
-69 -72 0
-70 -71 0
-70 -72 0
-71 -72 0
-73 -74 0
-73 -75 0
-73 -76 0
-73 -77 0
-73 -78 0
-73 -79 0
-73 -80 0
-74 -75 0
-74 -76 0
-74 -77 0
-74 -78 0
-74 -79 0
-74 -80 0
-75 -76 0
-75 -77 0
-75 -78 0
-75 -79 0
-75 -80 0
-76 -77 0
-76 -78 0
-76 -79 0
-76 -80 0
-77 -78 0
-77 -79 0
-77 -80 0
-78 -79 0
-78 -80 0
-79 -80 0
-81 -82 0
-81 -83 0
-81 -84 0
-81 -85 0
-81 -86 0
-81 -87 0
-81 -88 0
-82 -83 0
-82 -84 0
-82 -85 0
-82 -86 0
-82 -87 0
-82 -88 0
-83 -84 0
-83 -85 0
-83 -86 0
-83 -87 0
-83 -88 0
-84 -85 0
-84 -86 0
-84 -87 0
-84 -88 0
-85 -86 0
-85 -87 0
-85 -88 0
-86 -87 0
-86 -88 0
-87 -88 0
-89 -90 0
-89 -91 0
-89 -92 0
-89 -93 0
-89 -94 0
-89 -95 0
-89 -96 0
-90 -91 0
-90 -92 0
-90 -93 0
-90 -94 0
-90 -95 0
-90 -96 0
-91 -92 0
-91 -93 0
-91 -94 0
-91 -95 0
-91 -96 0
-92 -93 0
-92 -94 0
-92 -95 0
-92 -96 0
-93 -94 0
-93 -95 0
-93 -96 0
-94 -95 0
-94 -96 0
-95 -96 0
-97 -98 0
-97 -99 0
-97 -100 0
-97 -101 0
-97 -102 0
-97 -103 0
-97 -104 0
-98 -99 0
-98 -100 0
-98 -101 0
-98 -102 0
-98 -103 0
-98 -104 0
-99 -100 0
-99 -101 0
-99 -102 0
-99 -103 0
-99 -104 0
-100 -101 0
-100 -102 0
-100 -103 0
-100 -104 0
-101 -102 0
-101 -103 0
-101 -104 0
-102 -103 0
-102 -104 0
-103 -104 0
-105 -106 0
-105 -107 0
-105 -108 0
-105 -109 0
-105 -110 0
-105 -111 0
-105 -112 0
-106 -107 0
-106 -108 0
-106 -109 0
-106 -110 0
-106 -111 0
-106 -112 0
-107 -108 0
-107 -109 0
-107 -110 0
-107 -111 0
-107 -112 0
-108 -109 0
-108 -110 0
-108 -111 0
-108 -112 0
-109 -110 0
-109 -111 0
-109 -112 0
-110 -111 0
-110 -112 0
-111 -112 0
-113 -114 0
-113 -115 0
-113 -116 0
-113 -117 0
-113 -118 0
-113 -119 0
-113 -120 0
-114 -115 0
-114 -116 0
-114 -117 0
-114 -118 0
-114 -119 0
-114 -120 0
-115 -116 0
-115 -117 0
-115 -118 0
-115 -119 0
-115 -120 0
-116 -117 0
-116 -118 0
-116 -119 0
-116 -120 0
-117 -118 0
-117 -119 0
-117 -120 0
-118 -119 0
-118 -120 0
-119 -120 0
1 9 17 25 33 41 49 57 65 73 81 89 97 105 113 0
2 10 18 26 34 42 50 58 66 74 82 90 98 106 114 0
3 11 19 27 35 43 51 59 67 75 83 91 99 107 115 0
4 12 20 28 36 44 52 60 68 76 84 92 100 108 116 0
5 13 21 29 37 45 53 61 69 77 85 93 101 109 117 0
6 14 22 30 38 46 54 62 70 78 86 94 102 110 118 0
7 15 23 31 39 47 55 63 71 79 87 95 103 111 119 0
8 16 24 32 40 48 56 64 72 80 88 96 104 112 120 0
1 16 23 30 37 44 51 58 65 80 87 94 101 108 115 0
2 9 24 31 38 45 52 59 66 73 88 95 102 109 116 0
3 10 17 32 39 46 53 60 67 74 81 96 103 110 117 0
4 11 18 25 40 47 54 61 68 75 82 89 104 111 118 0
5 12 19 26 33 48 55 62 69 76 83 90 97 112 119 0
6 13 20 27 34 41 56 63 70 77 84 91 98 105 120 0
7 14 21 28 35 42 49 64 71 78 85 92 99 106 113 0
8 15 22 29 36 43 50 57 72 79 86 93 100 107 114 0
1 15 21 27 33 47 53 59 65 79 85 91 97 111 117 0
2 16 22 28 34 48 54 60 66 80 86 92 98 112 118 0
3 9 23 29 35 41 55 61 67 73 87 93 99 105 119 0
4 10 24 30 36 42 56 62 68 74 88 94 100 106 120 0
5 11 17 31 37 43 49 63 69 75 81 95 101 107 113 0
6 12 18 32 38 44 50 64 70 76 82 96 102 108 114 0
7 13 19 25 39 45 51 57 71 77 83 89 103 109 115 0
8 14 20 26 40 46 52 58 72 78 84 90 104 110 116 0
1 14 19 32 37 42 55 60 65 78 83 96 101 106 119 0
2 15 20 25 38 43 56 61 66 79 84 89 102 107 120 0
3 16 21 26 39 44 49 62 67 80 85 90 103 108 113 0
4 9 22 27 40 45 50 63 68 73 86 91 104 109 114 0
5 10 23 28 33 46 51 64 69 74 87 92 97 110 115 0
6 11 24 29 34 47 52 57 70 75 88 93 98 111 116 0
7 12 17 30 35 48 53 58 71 76 81 94 99 112 117 0
8 13 18 31 36 41 54 59 72 77 82 95 100 105 118 0
1 13 17 29 33 45 49 61 65 77 81 93 97 109 113 0
2 14 18 30 34 46 50 62 66 78 82 94 98 110 114 0
3 15 19 31 35 47 51 63 67 79 83 95 99 111 115 0
4 16 20 32 36 48 52 64 68 80 84 96 100 112 116 0
5 9 21 25 37 41 53 57 69 73 85 89 101 105 117 0
6 10 22 26 38 42 54 58 70 74 86 90 102 106 118 0
7 11 23 27 39 43 55 59 71 75 87 91 103 107 119 0
8 12 24 28 40 44 56 60 72 76 88 92 104 108 120 0
1 12 23 26 37 48 51 62 65 76 87 90 101 112 115 0
2 13 24 27 38 41 52 63 66 77 88 91 102 105 116 0
3 14 17 28 39 42 53 64 67 78 81 92 103 106 117 0
4 15 18 29 40 43 54 57 68 79 82 93 104 107 118 0
5 16 19 30 33 44 55 58 69 80 83 94 97 108 119 0
6 9 20 31 34 45 56 59 70 73 84 95 98 109 120 0
7 10 21 32 35 46 49 60 71 74 85 96 99 110 113 0
8 11 22 25 36 47 50 61 72 75 86 89 100 111 114 0
1 11 21 31 33 43 53 63 65 75 85 95 97 107 117 0
2 12 22 32 34 44 54 64 66 76 86 96 98 108 118 0
3 13 23 25 35 45 55 57 67 77 87 89 99 109 119 0
4 14 24 26 36 46 56 58 68 78 88 90 100 110 120 0
5 15 17 27 37 47 49 59 69 79 81 91 101 111 113 0
6 16 18 28 38 48 50 60 70 80 82 92 102 112 114 0
7 9 19 29 39 41 51 61 71 73 83 93 103 105 115 0
8 10 20 30 40 42 52 62 72 74 84 94 104 106 116 0
1 10 19 28 37 46 55 64 65 74 83 92 101 110 119 0
2 11 20 29 38 47 56 57 66 75 84 93 102 111 120 0
3 12 21 30 39 48 49 58 67 76 85 94 103 112 113 0
4 13 22 31 40 41 50 59 68 77 86 95 104 105 114 0
5 14 23 32 33 42 51 60 69 78 87 96 97 106 115 0
6 15 24 25 34 43 52 61 70 79 88 89 98 107 116 0
7 16 17 26 35 44 53 62 71 80 81 90 99 108 117 0
8 9 18 27 36 45 54 63 72 73 82 91 100 109 118 0
